language Essence 1.3

letting blksize_delta be function(1 --> 1, 2 --> 1, 3 --> 1, 4 --> 1, 5 --> 1, 6 --> 1, 7 --> 1, 8 --> 1, 9 --> 1)
letting maxcars be function(1 --> 2, 2 --> 2, 3 --> 2, 4 --> 2, 5 --> 2, 6 --> 2, 7 --> 2, 8 --> 2, 9 --> 2)
letting n_cars be 155
letting n_classes be 2
letting n_options be 9
letting quantity be function(1 --> 88, 2 --> 67)
letting usage be relation((1, 2), (1, 3), (1, 4), (1, 5), (1, 6), (1, 7), (1, 8), (2, 1), (2, 9))
$ Visualisation for usage
$ 1 2
$ 1 3
$ 1 4
$ 1 5
$ 1 6
$ 1 7
$ 1 8
$ 2 1
$ 2 9

